Minimize
	value: tt

Subject to
tt + 2000 s_1_1 > 0
tt - t_1_1 - 2001.500000 s_1_1 + 1.500000 s_1_6 > -1989.248861
tt + 2000 s_2_1 > 0
tt - t_2_1 - 2003.000000 s_2_1 + 3.000000 s_2_6 > -1988.296100
tt + 2000 s_1_2 > 0
tt - t_1_2 - 2001.500000 s_1_2 + 1.500000 s_1_7 > -1987.725944
tt + 2000 s_2_2 > 0
tt - t_2_2 - 2003.000000 s_2_2 + 3.000000 s_2_7 > -1988.276000
tt + 2000 s_1_3 > 0
tt - t_1_3 - 2001.500000 s_1_3 + 1.500000 s_1_7 > -1981.649825
tt + 2000 s_2_3 > 0
tt - t_2_3 - 2003.000000 s_2_3 + 3.000000 s_2_7 > -1983.849500
tt + 2000 s_1_4 > 0
tt - t_1_4 - 2027.048600 s_1_4 + 27.048600 s_1_7 > -1989.763275
tt + 2000 s_2_4 > 0
tt - t_2_4 - 2054.097200 s_2_4 + 54.097200 s_2_7 > -1988.322600
tt + 2000 s_1_5 > 0
tt - t_1_5 - 2006.000000 s_1_5 + 6.000000 s_1_7 > -1991.007300
tt + 2000 s_2_5 > 0
tt - t_2_5 - 2012.000000 s_2_5 + 12.000000 s_2_7 > -1990.720600
tt + 2000 s_1_6 > 0
tt - t_1_6 - 2000.000000 s_1_6 > -1976.261800
tt + 2000 s_2_6 > 0
tt - t_2_6 - 2000.000000 s_2_6 > -1990.823500
tt + 2000 s_1_7 > 0
tt - t_1_7 - 2000.000000 s_1_7 > -1975.971800
tt + 2000 s_2_7 > 0
tt - t_2_7 - 2000.000000 s_2_7 > -1990.873200
tt + 2000 s_1_8 > 0
tt - t_1_8 - 2240.486000 s_1_8 + 240.486000 s_1_1 > -1997.685000
tt + 2000 s_2_8 > 0
tt - t_2_8 - 2480.972000 s_2_8 + 480.972000 s_2_1 > -1994.640700
s_1_1 + s_2_1  = 1
s_1_2 + s_2_2  = 1
s_1_3 + s_2_3  = 1
s_1_4 + s_2_4  = 1
s_1_5 + s_2_5  = 1
s_1_6 + s_2_6  = 1
s_1_7 + s_2_7  = 1
s_1_8 + s_2_8  = 1
t_1_1 - t_1_2 + 2000.000000 u_1_1_2 - 1.500000 s_1_2 + 1.500000 s_1_7 > 12.274056
t_1_2 - t_1_1 - 2000.000000 u_1_1_2 > -1989.248861
t_2_1 - t_2_2 + 2000.000000 u_2_1_2 - 3.000000 s_2_2 + 3.000000 s_2_7 > 11.724000
t_2_2 - t_2_1 - 2000.000000 u_2_1_2 > -1988.296100
t_1_1 - t_1_3 + 2000.000000 u_1_1_3 - 1.500000 s_1_3 + 1.500000 s_1_7 > 18.350175
t_1_3 - t_1_1 - 2000.000000 u_1_1_3 > -1989.248861
t_2_1 - t_2_3 + 2000.000000 u_2_1_3 - 3.000000 s_2_3 + 3.000000 s_2_7 > 16.150500
t_2_3 - t_2_1 - 2000.000000 u_2_1_3 > -1988.296100
t_1_1 - t_1_4 + 2000.000000 u_1_1_4 - 13.524300 s_1_4 + 13.524300 s_1_7 > 10.236725
t_1_4 - t_1_1 - 2000.000000 u_1_1_4 > -1989.248861
t_2_1 - t_2_4 + 2000.000000 u_2_1_4 - 27.048600 s_2_4 + 27.048600 s_2_7 > 11.677400
t_2_4 - t_2_1 - 2000.000000 u_2_1_4 > -1988.296100
t_1_1 - t_1_5 + 2000.000000 u_1_1_5 - 3.000000 s_1_5 + 3.000000 s_1_7 > 8.992700
t_1_5 - t_1_1 - 2000.000000 u_1_1_5 > -1989.248861
t_2_1 - t_2_5 + 2000.000000 u_2_1_5 - 6.000000 s_2_5 + 6.000000 s_2_7 > 9.279400
t_2_5 - t_2_1 - 2000.000000 u_2_1_5 > -1988.296100
t_1_1 - t_1_6 - 2000.000000 s_1_6 > -1946.201050
t_1_1 - t_2_6 - 2000.000000 s_2_6 > -1930.702000
t_2_1 - t_1_6 - 2000.000000 s_1_6 > -1946.201050
t_2_1 - t_2_6 - 2000.000000 s_2_6 > -1930.702000
t_1_1 - t_1_7 + 2000.000000 u_1_1_7 > 24.028200
t_1_7 - t_1_1 - 2000.000000 u_1_1_7 > -1989.248861
t_2_1 - t_2_7 + 2000.000000 u_2_1_7 > 9.126800
t_2_7 - t_2_1 - 2000.000000 u_2_1_7 > -1988.296100
t_1_8 - t_1_1 - 2000.000000 s_1_1 > -1987.748861
t_1_8 - t_2_1 - 2000.000000 s_2_1 > -1985.296100
t_2_8 - t_1_1 - 2000.000000 s_1_1 > -1987.748861
t_2_8 - t_2_1 - 2000.000000 s_2_1 > -1985.296100
t_1_2 - t_1_1 + 2000.000000 u_1_2_1 - 1.500000 s_1_1 + 1.500000 s_1_6 > 10.751139
t_1_1 - t_1_2 - 2000.000000 u_1_2_1 > -1987.725944
t_2_2 - t_2_1 + 2000.000000 u_2_2_1 - 3.000000 s_2_1 + 3.000000 s_2_6 > 11.703900
t_2_1 - t_2_2 - 2000.000000 u_2_2_1 > -1988.276000
t_1_2 - t_1_3 + 2000.000000 u_1_2_3 - 1.500000 s_1_3 + 1.500000 s_1_7 > 18.350175
t_1_3 - t_1_2 - 2000.000000 u_1_2_3 > -1987.725944
t_2_2 - t_2_3 + 2000.000000 u_2_2_3 - 3.000000 s_2_3 + 3.000000 s_2_7 > 16.150500
t_2_3 - t_2_2 - 2000.000000 u_2_2_3 > -1988.276000
t_1_2 - t_1_4 + 2000.000000 u_1_2_4 - 13.524300 s_1_4 + 13.524300 s_1_7 > 10.236725
t_1_4 - t_1_2 - 2000.000000 u_1_2_4 > -1987.725944
t_2_2 - t_2_4 + 2000.000000 u_2_2_4 - 27.048600 s_2_4 + 27.048600 s_2_7 > 11.677400
t_2_4 - t_2_2 - 2000.000000 u_2_2_4 > -1988.276000
t_1_2 - t_1_5 + 2000.000000 u_1_2_5 - 3.000000 s_1_5 + 3.000000 s_1_7 > 8.992700
t_1_5 - t_1_2 - 2000.000000 u_1_2_5 > -1987.725944
t_2_2 - t_2_5 + 2000.000000 u_2_2_5 - 6.000000 s_2_5 + 6.000000 s_2_7 > 9.279400
t_2_5 - t_2_2 - 2000.000000 u_2_2_5 > -1988.276000
t_1_2 - t_1_6 + 2000.000000 u_1_2_6 > 23.738200
t_1_6 - t_1_2 - 2000.000000 u_1_2_6 > -1987.725944
t_2_2 - t_2_6 + 2000.000000 u_2_2_6 > 9.176500
t_2_6 - t_2_2 - 2000.000000 u_2_2_6 > -1988.276000
t_1_2 - t_1_7 - 2000.000000 s_1_7 > -1945.911050
t_1_2 - t_2_7 - 2000.000000 s_2_7 > -1930.751700
t_2_2 - t_1_7 - 2000.000000 s_1_7 > -1945.911050
t_2_2 - t_2_7 - 2000.000000 s_2_7 > -1930.751700
t_1_8 - t_1_2 - 2000.000000 s_1_2 > -1986.225944
t_1_8 - t_2_2 - 2000.000000 s_2_2 > -1985.276000
t_2_8 - t_1_2 - 2000.000000 s_1_2 > -1986.225944
t_2_8 - t_2_2 - 2000.000000 s_2_2 > -1985.276000
t_1_3 - t_1_1 + 2000.000000 u_1_3_1 - 1.500000 s_1_1 + 1.500000 s_1_6 > 10.751139
t_1_1 - t_1_3 - 2000.000000 u_1_3_1 > -1981.649825
t_2_3 - t_2_1 + 2000.000000 u_2_3_1 - 3.000000 s_2_1 + 3.000000 s_2_6 > 11.703900
t_2_1 - t_2_3 - 2000.000000 u_2_3_1 > -1983.849500
t_1_3 - t_1_2 + 2000.000000 u_1_3_2 - 1.500000 s_1_2 + 1.500000 s_1_7 > 12.274056
t_1_2 - t_1_3 - 2000.000000 u_1_3_2 > -1981.649825
t_2_3 - t_2_2 + 2000.000000 u_2_3_2 - 3.000000 s_2_2 + 3.000000 s_2_7 > 11.724000
t_2_2 - t_2_3 - 2000.000000 u_2_3_2 > -1983.849500
t_1_4 - t_1_3 - 2000.000000 s_1_3 > -1980.149825
t_1_4 - t_2_3 - 2000.000000 s_2_3 > -1980.849500
t_2_4 - t_1_3 - 2000.000000 s_1_3 > -1980.149825
t_2_4 - t_2_3 - 2000.000000 s_2_3 > -1980.849500
t_1_3 - t_1_5 + 2000.000000 u_1_3_5 - 3.000000 s_1_5 + 3.000000 s_1_7 > 8.992700
t_1_5 - t_1_3 - 2000.000000 u_1_3_5 > -1981.649825
t_2_3 - t_2_5 + 2000.000000 u_2_3_5 - 6.000000 s_2_5 + 6.000000 s_2_7 > 9.279400
t_2_5 - t_2_3 - 2000.000000 u_2_3_5 > -1983.849500
t_1_3 - t_1_6 + 2000.000000 u_1_3_6 > 23.738200
t_1_6 - t_1_3 - 2000.000000 u_1_3_6 > -1981.649825
t_2_3 - t_2_6 + 2000.000000 u_2_3_6 > 9.176500
t_2_6 - t_2_3 - 2000.000000 u_2_3_6 > -1983.849500
t_1_3 - t_1_7 - 2000.000000 s_1_7 > -1945.911050
t_1_3 - t_2_7 - 2000.000000 s_2_7 > -1930.751700
t_2_3 - t_1_7 - 2000.000000 s_1_7 > -1945.911050
t_2_3 - t_2_7 - 2000.000000 s_2_7 > -1930.751700
t_1_8 - t_1_3 - 2000.000000 s_1_3 > -1980.149825
t_1_8 - t_2_3 - 2000.000000 s_2_3 > -1980.849500
t_2_8 - t_1_3 - 2000.000000 s_1_3 > -1980.149825
t_2_8 - t_2_3 - 2000.000000 s_2_3 > -1980.849500
t_1_4 - t_1_1 + 2000.000000 u_1_4_1 - 1.500000 s_1_1 + 1.500000 s_1_6 > 10.751139
t_1_1 - t_1_4 - 2000.000000 u_1_4_1 > -1989.763275
t_2_4 - t_2_1 + 2000.000000 u_2_4_1 - 3.000000 s_2_1 + 3.000000 s_2_6 > 11.703900
t_2_1 - t_2_4 - 2000.000000 u_2_4_1 > -1988.322600
t_1_4 - t_1_2 + 2000.000000 u_1_4_2 - 1.500000 s_1_2 + 1.500000 s_1_7 > 12.274056
t_1_2 - t_1_4 - 2000.000000 u_1_4_2 > -1989.763275
t_2_4 - t_2_2 + 2000.000000 u_2_4_2 - 3.000000 s_2_2 + 3.000000 s_2_7 > 11.724000
t_2_2 - t_2_4 - 2000.000000 u_2_4_2 > -1988.322600
t_1_4 - t_1_3 - 2000.000000 s_1_3 > -1980.149825
t_1_4 - t_2_3 - 2000.000000 s_2_3 > -1980.849500
t_2_4 - t_1_3 - 2000.000000 s_1_3 > -1980.149825
t_2_4 - t_2_3 - 2000.000000 s_2_3 > -1980.849500
t_1_4 - t_1_5 + 2000.000000 u_1_4_5 - 3.000000 s_1_5 + 3.000000 s_1_7 > 8.992700
t_1_5 - t_1_4 - 2000.000000 u_1_4_5 > -1989.763275
t_2_4 - t_2_5 + 2000.000000 u_2_4_5 - 6.000000 s_2_5 + 6.000000 s_2_7 > 9.279400
t_2_5 - t_2_4 - 2000.000000 u_2_4_5 > -1988.322600
t_1_4 - t_1_6 + 2000.000000 u_1_4_6 > 23.738200
t_1_6 - t_1_4 - 2000.000000 u_1_4_6 > -1989.763275
t_2_4 - t_2_6 + 2000.000000 u_2_4_6 > 9.176500
t_2_6 - t_2_4 - 2000.000000 u_2_4_6 > -1988.322600
t_1_4 - t_1_7 - 2000.000000 s_1_7 > -1945.911050
t_1_4 - t_2_7 - 2000.000000 s_2_7 > -1930.751700
t_2_4 - t_1_7 - 2000.000000 s_1_7 > -1945.911050
t_2_4 - t_2_7 - 2000.000000 s_2_7 > -1930.751700
t_1_8 - t_1_4 - 2000.000000 s_1_4 > -1976.238975
t_1_8 - t_2_4 - 2000.000000 s_2_4 > -1961.274000
t_2_8 - t_1_4 - 2000.000000 s_1_4 > -1976.238975
t_2_8 - t_2_4 - 2000.000000 s_2_4 > -1961.274000
t_1_5 - t_1_1 + 2000.000000 u_1_5_1 - 1.500000 s_1_1 + 1.500000 s_1_6 > 10.751139
t_1_1 - t_1_5 - 2000.000000 u_1_5_1 > -1991.007300
t_2_5 - t_2_1 + 2000.000000 u_2_5_1 - 3.000000 s_2_1 + 3.000000 s_2_6 > 11.703900
t_2_1 - t_2_5 - 2000.000000 u_2_5_1 > -1990.720600
t_1_5 - t_1_2 + 2000.000000 u_1_5_2 - 1.500000 s_1_2 + 1.500000 s_1_7 > 12.274056
t_1_2 - t_1_5 - 2000.000000 u_1_5_2 > -1991.007300
t_2_5 - t_2_2 + 2000.000000 u_2_5_2 - 3.000000 s_2_2 + 3.000000 s_2_7 > 11.724000
t_2_2 - t_2_5 - 2000.000000 u_2_5_2 > -1990.720600
t_1_5 - t_1_3 + 2000.000000 u_1_5_3 - 1.500000 s_1_3 + 1.500000 s_1_7 > 18.350175
t_1_3 - t_1_5 - 2000.000000 u_1_5_3 > -1991.007300
t_2_5 - t_2_3 + 2000.000000 u_2_5_3 - 3.000000 s_2_3 + 3.000000 s_2_7 > 16.150500
t_2_3 - t_2_5 - 2000.000000 u_2_5_3 > -1990.720600
t_1_5 - t_1_4 + 2000.000000 u_1_5_4 - 13.524300 s_1_4 + 13.524300 s_1_7 > 10.236725
t_1_4 - t_1_5 - 2000.000000 u_1_5_4 > -1991.007300
t_2_5 - t_2_4 + 2000.000000 u_2_5_4 - 27.048600 s_2_4 + 27.048600 s_2_7 > 11.677400
t_2_4 - t_2_5 - 2000.000000 u_2_5_4 > -1990.720600
t_1_5 - t_1_6 - 2000.000000 s_1_6 > -1946.201050
t_1_5 - t_2_6 - 2000.000000 s_2_6 > -1930.702000
t_2_5 - t_1_6 - 2000.000000 s_1_6 > -1946.201050
t_2_5 - t_2_6 - 2000.000000 s_2_6 > -1930.702000
t_1_5 - t_1_7 - 2000.000000 s_1_7 > -1945.911050
t_1_5 - t_2_7 - 2000.000000 s_2_7 > -1930.751700
t_2_5 - t_1_7 - 2000.000000 s_1_7 > -1945.911050
t_2_5 - t_2_7 - 2000.000000 s_2_7 > -1930.751700
t_1_8 - t_1_5 - 2000.000000 s_1_5 > -1988.007300
t_1_8 - t_2_5 - 2000.000000 s_2_5 > -1984.720600
t_2_8 - t_1_5 - 2000.000000 s_1_5 > -1988.007300
t_2_8 - t_2_5 - 2000.000000 s_2_5 > -1984.720600
t_1_1 - t_1_6 - 2000.000000 s_1_6 > -1946.201050
t_1_1 - t_2_6 - 2000.000000 s_2_6 > -1930.702000
t_2_1 - t_1_6 - 2000.000000 s_1_6 > -1946.201050
t_2_1 - t_2_6 - 2000.000000 s_2_6 > -1930.702000
t_1_6 - t_1_2 + 2000.000000 u_1_6_2 - 1.500000 s_1_2 + 1.500000 s_1_7 > 12.274056
t_1_2 - t_1_6 - 2000.000000 u_1_6_2 > -1976.261800
t_2_6 - t_2_2 + 2000.000000 u_2_6_2 - 3.000000 s_2_2 + 3.000000 s_2_7 > 11.724000
t_2_2 - t_2_6 - 2000.000000 u_2_6_2 > -1990.823500
t_1_6 - t_1_3 + 2000.000000 u_1_6_3 - 1.500000 s_1_3 + 1.500000 s_1_7 > 18.350175
t_1_3 - t_1_6 - 2000.000000 u_1_6_3 > -1976.261800
t_2_6 - t_2_3 + 2000.000000 u_2_6_3 - 3.000000 s_2_3 + 3.000000 s_2_7 > 16.150500
t_2_3 - t_2_6 - 2000.000000 u_2_6_3 > -1990.823500
t_1_6 - t_1_4 + 2000.000000 u_1_6_4 - 13.524300 s_1_4 + 13.524300 s_1_7 > 10.236725
t_1_4 - t_1_6 - 2000.000000 u_1_6_4 > -1976.261800
t_2_6 - t_2_4 + 2000.000000 u_2_6_4 - 27.048600 s_2_4 + 27.048600 s_2_7 > 11.677400
t_2_4 - t_2_6 - 2000.000000 u_2_6_4 > -1990.823500
t_1_5 - t_1_6 - 2000.000000 s_1_6 > -1946.201050
t_1_5 - t_2_6 - 2000.000000 s_2_6 > -1930.702000
t_2_5 - t_1_6 - 2000.000000 s_1_6 > -1946.201050
t_2_5 - t_2_6 - 2000.000000 s_2_6 > -1930.702000
t_1_6 - t_1_7 + 2000.000000 u_1_6_7 > 24.028200
t_1_7 - t_1_6 - 2000.000000 u_1_6_7 > -1976.261800
t_2_6 - t_2_7 + 2000.000000 u_2_6_7 > 9.126800
t_2_7 - t_2_6 - 2000.000000 u_2_6_7 > -1990.823500
t_1_7 - t_1_1 + 2000.000000 u_1_7_1 - 1.500000 s_1_1 + 1.500000 s_1_6 > 10.751139
t_1_1 - t_1_7 - 2000.000000 u_1_7_1 > -1975.971800
t_2_7 - t_2_1 + 2000.000000 u_2_7_1 - 3.000000 s_2_1 + 3.000000 s_2_6 > 11.703900
t_2_1 - t_2_7 - 2000.000000 u_2_7_1 > -1990.873200
t_1_2 - t_1_7 - 2000.000000 s_1_7 > -1945.911050
t_1_2 - t_2_7 - 2000.000000 s_2_7 > -1930.751700
t_2_2 - t_1_7 - 2000.000000 s_1_7 > -1945.911050
t_2_2 - t_2_7 - 2000.000000 s_2_7 > -1930.751700
t_1_3 - t_1_7 - 2000.000000 s_1_7 > -1945.911050
t_1_3 - t_2_7 - 2000.000000 s_2_7 > -1930.751700
t_2_3 - t_1_7 - 2000.000000 s_1_7 > -1945.911050
t_2_3 - t_2_7 - 2000.000000 s_2_7 > -1930.751700
t_1_4 - t_1_7 - 2000.000000 s_1_7 > -1945.911050
t_1_4 - t_2_7 - 2000.000000 s_2_7 > -1930.751700
t_2_4 - t_1_7 - 2000.000000 s_1_7 > -1945.911050
t_2_4 - t_2_7 - 2000.000000 s_2_7 > -1930.751700
t_1_5 - t_1_7 - 2000.000000 s_1_7 > -1945.911050
t_1_5 - t_2_7 - 2000.000000 s_2_7 > -1930.751700
t_2_5 - t_1_7 - 2000.000000 s_1_7 > -1945.911050
t_2_5 - t_2_7 - 2000.000000 s_2_7 > -1930.751700
t_1_7 - t_1_6 + 2000.000000 u_1_7_6 > 23.738200
t_1_6 - t_1_7 - 2000.000000 u_1_7_6 > -1975.971800
t_2_7 - t_2_6 + 2000.000000 u_2_7_6 > 9.176500
t_2_6 - t_2_7 - 2000.000000 u_2_7_6 > -1990.873200
t_1_8 - t_1_1 - 2000.000000 s_1_1 > -1987.748861
t_1_8 - t_2_1 - 2000.000000 s_2_1 > -1985.296100
t_2_8 - t_1_1 - 2000.000000 s_1_1 > -1987.748861
t_2_8 - t_2_1 - 2000.000000 s_2_1 > -1985.296100
t_1_8 - t_1_2 - 2000.000000 s_1_2 > -1986.225944
t_1_8 - t_2_2 - 2000.000000 s_2_2 > -1985.276000
t_2_8 - t_1_2 - 2000.000000 s_1_2 > -1986.225944
t_2_8 - t_2_2 - 2000.000000 s_2_2 > -1985.276000
t_1_8 - t_1_3 - 2000.000000 s_1_3 > -1980.149825
t_1_8 - t_2_3 - 2000.000000 s_2_3 > -1980.849500
t_2_8 - t_1_3 - 2000.000000 s_1_3 > -1980.149825
t_2_8 - t_2_3 - 2000.000000 s_2_3 > -1980.849500
t_1_8 - t_1_4 - 2000.000000 s_1_4 > -1976.238975
t_1_8 - t_2_4 - 2000.000000 s_2_4 > -1961.274000
t_2_8 - t_1_4 - 2000.000000 s_1_4 > -1976.238975
t_2_8 - t_2_4 - 2000.000000 s_2_4 > -1961.274000
t_1_8 - t_1_5 - 2000.000000 s_1_5 > -1988.007300
t_1_8 - t_2_5 - 2000.000000 s_2_5 > -1984.720600
t_2_8 - t_1_5 - 2000.000000 s_1_5 > -1988.007300
t_2_8 - t_2_5 - 2000.000000 s_2_5 > -1984.720600
Binary
s_1_1
s_2_1
s_1_2
s_2_2
s_1_3
s_2_3
s_1_4
s_2_4
s_1_5
s_2_5
s_1_6
s_2_6
s_1_7
s_2_7
s_1_8
s_2_8
u_1_1_2
u_2_1_2
u_1_1_3
u_2_1_3
u_1_1_4
u_2_1_4
u_1_1_5
u_2_1_5
u_1_1_7
u_2_1_7
u_1_2_1
u_2_2_1
u_1_2_3
u_2_2_3
u_1_2_4
u_2_2_4
u_1_2_5
u_2_2_5
u_1_2_6
u_2_2_6
u_1_3_1
u_2_3_1
u_1_3_2
u_2_3_2
u_1_3_5
u_2_3_5
u_1_3_6
u_2_3_6
u_1_4_1
u_2_4_1
u_1_4_2
u_2_4_2
u_1_4_5
u_2_4_5
u_1_4_6
u_2_4_6
u_1_5_1
u_2_5_1
u_1_5_2
u_2_5_2
u_1_5_3
u_2_5_3
u_1_5_4
u_2_5_4
u_1_6_2
u_2_6_2
u_1_6_3
u_2_6_3
u_1_6_4
u_2_6_4
u_1_6_7
u_2_6_7
u_1_7_1
u_2_7_1
u_1_7_6
u_2_7_6

End
